c Source: TUDataset PTC_MR, graph #158
c Original: n=18, m=20
c Augmented: +11 edges, n=23 -> m=31, circuit_rank=9
c Augmented to satisfy Eulerian condition (no parallel edges)
p sp 23
e 11 12
e 11 18
e 2 18
e 7 8
e 16 17
e 12 13
e 3 4
e 14 16
e 9 11
e 8 9
e 13 14
e 4 5
e 14 15
e 9 10
e 5 6
e 6 7
e 16 18
e 1 2
e 3 8
e 2 3
e 1 19
e 2 19
e 3 20
e 8 20
e 9 21
e 10 21
e 11 22
e 18 22
e 14 23
e 16 23
e 15 17
